benchmarks/singlecore/simple/simple.out
sim-profile: SimpleScalar/PISA Tool Set version 3.0 of August, 2003.
Copyright (c) 1994-2003 by Todd M. Austin, Ph.D. and SimpleScalar, LLC.
All Rights Reserved. This version of SimpleScalar is licensed for academic
non-commercial use.  No portion of this work may be used by any commercial
entity, or for any commercial purpose, without the prior written permission
of SimpleScalar, LLC (info@simplescalar.com).

sim: command line: /home/sudiptac/sudiptac/Work/simplesim-3.0/sim-profile -pcstat sim_num_insn simple 

sim: simulation started @ Mon Sep 14 17:38:29 2009, options follow:

sim-profile: This simulator implements a functional simulator with
profiling support.  Run with the `-h' flag to see profiling options
available.

# -config                     # load configuration from a file
# -dumpconfig                 # dump configuration to a file
# -h                    false # print help message    
# -v                    false # verbose operation     
# -d                    false # enable debug message  
# -i                    false # start in Dlite debugger
-seed                       1 # random number generator seed (0 for timer seed)
# -q                    false # initialize and terminate immediately
# -chkpt               <null> # restore EIO trace execution from <fname>
# -redir:sim           <null> # redirect simulator output to file (non-interactive only)
# -redir:prog          <null> # redirect simulated program output to file
-nice                       0 # simulator scheduling priority
-max:inst                   0 # maximum number of inst's to execute
-all                    false # enable all profile options
-iclass                 false # enable instruction class profiling
-iprof                  false # enable instruction profiling
-brprof                 false # enable branch instruction profiling
-amprof                 false # enable address mode profiling
-segprof                false # enable load/store address segment profiling
-tsymprof               false # enable text symbol profiling
-taddrprof              false # enable text address profiling
-dsymprof               false # enable data symbol profiling
-internal               false # include compiler-internal symbols during symbol profiling
# -pcstat        sim_num_insn # profile stat(s) against text addr's (mult uses ok)

sim: ** starting functional simulation **

sim: ** simulation statistics **
sim_num_insn                   6636 # total number of instructions executed
sim_num_refs                   3790 # total number of loads and stores executed
sim_elapsed_time                  1 # total simulation time in seconds
sim_inst_rate             6636.0000 # simulation speed (in insts/sec)

sim_num_insn_by_pc     # total number of instructions executed (by text address)
sim_num_insn_by_pc.count = 782
sim_num_insn_by_pc.total = 6635
sim_num_insn_by_pc.imin = 0x400140
sim_num_insn_by_pc.imax = 0x405610
sim_num_insn_by_pc.average =   8.4847
sim_num_insn_by_pc.std_dev =  48.5636
sim_num_insn_by_pc.overflows = 0
# pdf == prob dist fn, cdf == cumulative dist fn
#          index      count    pdf 
sim_num_insn_by_pc.start_dist
0x400140 1 0.02
0x400148 1 0.02
0x400150 1 0.02
0x400158 1 0.02
0x400160 1 0.02
0x400168 1 0.02
0x400170 1 0.02
0x400178 1 0.02
0x400180 1 0.02
0x400188 1 0.02
0x400190 1 0.02
0x400198 1 0.02
0x4001a0 1 0.02
0x4001a8 1 0.02
0x4001b0 1 0.02
0x4001b8 1 0.02
0x4001c0 1 0.02
0x4001c8 1 0.02
0x4001d0 1 0.02
0x4001d8 1 0.02
0x4001e0 1 0.02
0x4001f0 1 0.02
0x4001f8 1 0.02
0x400200 1 0.02
0x400208 100 1.51
0x400210 100 1.51
0x400218 100 1.51
0x400220 100 1.51
0x400228 100 1.51
0x400230 100 1.51
0x400238 100 1.51
0x400240 1 0.02
0x400250 1 0.02
0x400258 1 0.02
0x400260 1 0.02
0x400268 1 0.02
0x400270 1 0.02
0x400278 1 0.02
0x400280 1 0.02
0x400288 1 0.02
0x400290 1 0.02
0x400298 1 0.02
0x4002a0 1 0.02
0x4002a8 1 0.02
0x4002b0 1 0.02
0x4002b8 1 0.02
0x4002c0 1 0.02
0x4002c8 1 0.02
0x4002d0 1 0.02
0x4002d8 1 0.02
0x4002e0 1 0.02
0x4002e8 1 0.02
0x4002f0 1 0.02
0x4002f8 1 0.02
0x400300 1 0.02
0x4003b0 1 0.02
0x4003b8 1 0.02
0x4003c0 1 0.02
0x4003c8 1 0.02
0x4003d0 1 0.02
0x400420 1 0.02
0x400428 1 0.02
0x400430 1 0.02
0x400438 1 0.02
0x400440 1 0.02
0x400448 1 0.02
0x400450 1 0.02
0x400458 1 0.02
0x400460 1 0.02
0x400468 1 0.02
0x400470 1 0.02
0x400478 1 0.02
0x400488 1 0.02
0x400490 1 0.02
0x400498 1 0.02
0x4004a0 1 0.02
0x4004a8 1 0.02
0x4006c0 1 0.02
0x4006c8 1 0.02
0x4006d0 1 0.02
0x4006d8 1 0.02
0x4006e0 1 0.02
0x4006e8 1 0.02
0x4006f0 1 0.02
0x400710 1 0.02
0x400730 1 0.02
0x400738 1 0.02
0x400740 1 0.02
0x400748 1 0.02
0x400750 1 0.02
0x400758 1 0.02
0x400778 1 0.02
0x400780 1 0.02
0x400788 1 0.02
0x400790 1 0.02
0x4007b0 1 0.02
0x4007b8 1 0.02
0x4007c0 1 0.02
0x4007c8 1 0.02
0x4007d0 1 0.02
0x4007d8 1 0.02
0x4007e0 1 0.02
0x4007e8 1 0.02
0x4007f0 1 0.02
0x4007f8 1 0.02
0x400800 1 0.02
0x400808 1 0.02
0x400810 1 0.02
0x400818 1 0.02
0x400820 1 0.02
0x400828 1 0.02
0x400830 1 0.02
0x400838 1 0.02
0x400840 1 0.02
0x400848 1 0.02
0x400850 1 0.02
0x400858 1 0.02
0x400860 1 0.02
0x400868 1 0.02
0x400878 1 0.02
0x400880 1 0.02
0x400888 1 0.02
0x400890 1 0.02
0x400898 1 0.02
0x4008a0 1 0.02
0x4008a8 1 0.02
0x4008b0 1 0.02
0x4008b8 1 0.02
0x4008c0 1 0.02
0x4008c8 1 0.02
0x4008d0 1 0.02
0x4008d8 1 0.02
0x4008e0 1 0.02
0x4008e8 1 0.02
0x4008f0 1 0.02
0x4008f8 1 0.02
0x400900 1 0.02
0x400908 1 0.02
0x400910 1 0.02
0x400918 1 0.02
0x400920 1 0.02
0x400928 1 0.02
0x400930 1 0.02
0x400938 1 0.02
0x400948 1 0.02
0x400950 1 0.02
0x400958 1 0.02
0x400960 1 0.02
0x400968 1 0.02
0x400970 1 0.02
0x400978 1 0.02
0x400980 1 0.02
0x400988 1 0.02
0x400990 1 0.02
0x400998 1 0.02
0x4009a0 1 0.02
0x4009a8 1 0.02
0x4009b0 1 0.02
0x4009b8 1 0.02
0x4009c0 1 0.02
0x4009c8 1 0.02
0x4009f8 1 0.02
0x400a00 1 0.02
0x400a10 1 0.02
0x400a18 1 0.02
0x400a30 1 0.02
0x400a38 1 0.02
0x400a40 1 0.02
0x400a48 1 0.02
0x400a58 1 0.02
0x400a60 1 0.02
0x400a68 1 0.02
0x400a70 1 0.02
0x400a78 1 0.02
0x400d00 1 0.02
0x400d08 1 0.02
0x400d10 1 0.02
0x400d18 1 0.02
0x400d28 1 0.02
0x400d30 1 0.02
0x400d38 1 0.02
0x400d40 1 0.02
0x400d48 1 0.02
0x400d50 1 0.02
0x400d58 1 0.02
0x400d60 1 0.02
0x400d68 1 0.02
0x400d70 1 0.02
0x400d78 1 0.02
0x400d80 1 0.02
0x400d88 1 0.02
0x400d90 1 0.02
0x400d98 1 0.02
0x400da0 1 0.02
0x400da8 1 0.02
0x400db0 1 0.02
0x400db8 1 0.02
0x400dc0 1 0.02
0x400dc8 1 0.02
0x400dd0 1 0.02
0x400de8 1 0.02
0x400df0 1 0.02
0x400df8 1 0.02
0x400e00 1 0.02
0x400e08 1 0.02
0x400e10 1 0.02
0x400e20 1 0.02
0x400e28 1 0.02
0x4011c0 1 0.02
0x4011c8 1 0.02
0x4011d0 1 0.02
0x4011d8 1 0.02
0x4011e0 1 0.02
0x4011e8 1 0.02
0x4011f0 1 0.02
0x4011f8 1 0.02
0x401200 1 0.02
0x401208 1 0.02
0x401210 1 0.02
0x401218 1 0.02
0x401220 1 0.02
0x401228 1 0.02
0x401230 1 0.02
0x401238 1 0.02
0x401240 1 0.02
0x401248 1 0.02
0x401250 1 0.02
0x401258 1 0.02
0x401260 1 0.02
0x401268 1 0.02
0x401270 1 0.02
0x401278 1 0.02
0x401280 1 0.02
0x401288 1 0.02
0x401370 1 0.02
0x401378 1 0.02
0x401380 1 0.02
0x401388 1 0.02
0x401390 1 0.02
0x401398 1 0.02
0x4013a0 1 0.02
0x4013b0 1 0.02
0x4013b8 1 0.02
0x4013c0 1 0.02
0x4013c8 1 0.02
0x4013d0 1 0.02
0x4013d8 1 0.02
0x4013e0 1 0.02
0x4013e8 1 0.02
0x4013f0 1 0.02
0x4013f8 1 0.02
0x401400 1 0.02
0x401408 1 0.02
0x401410 1 0.02
0x401418 1 0.02
0x401420 1 0.02
0x401428 1 0.02
0x401430 1 0.02
0x4016c8 1 0.02
0x4016d0 1 0.02
0x4016d8 1 0.02
0x4016e0 1 0.02
0x4016e8 1 0.02
0x4016f0 1 0.02
0x4016f8 1 0.02
0x401700 1 0.02
0x401710 4 0.06
0x401718 4 0.06
0x401720 4 0.06
0x401728 4 0.06
0x401730 4 0.06
0x401738 4 0.06
0x401740 4 0.06
0x401748 1 0.02
0x401750 1 0.02
0x401758 1 0.02
0x401760 1 0.02
0x401768 1 0.02
0x401770 1 0.02
0x401778 3 0.05
0x401780 3 0.05
0x401798 3 0.05
0x4017a0 3 0.05
0x4017a8 3 0.05
0x4017b0 3 0.05
0x4017b8 3 0.05
0x4017c0 3 0.05
0x4017c8 1 0.02
0x4017d0 1 0.02
0x4017d8 3 0.05
0x4017e0 3 0.05
0x4017e8 3 0.05
0x4017f0 3 0.05
0x401808 3 0.05
0x401810 3 0.05
0x401818 3 0.05
0x401820 3 0.05
0x401848 3 0.05
0x401850 3 0.05
0x401858 3 0.05
0x401860 2 0.03
0x401868 2 0.03
0x401870 2 0.03
0x401878 2 0.03
0x401880 2 0.03
0x401898 3 0.05
0x4018a0 3 0.05
0x4018a8 1 0.02
0x4018b0 1 0.02
0x4018b8 1 0.02
0x4018c0 1 0.02
0x4018c8 3 0.05
0x4018d0 3 0.05
0x4018d8 2 0.03
0x4018e0 2 0.03
0x4018e8 2 0.03
0x4018f0 2 0.03
0x4018f8 1 0.02
0x401900 1 0.02
0x401908 1 0.02
0x401910 1 0.02
0x401918 1 0.02
0x401938 1 0.02
0x401940 3 0.05
0x401948 3 0.05
0x401950 3 0.05
0x401958 4 0.06
0x401960 4 0.06
0x401968 4 0.06
0x401970 4 0.06
0x401978 4 0.06
0x401980 4 0.06
0x4019b0 1 0.02
0x4019b8 1 0.02
0x4019c0 1 0.02
0x4019c8 1 0.02
0x401a00 1 0.02
0x401a08 1 0.02
0x401a10 1 0.02
0x401a18 1 0.02
0x401a20 1 0.02
0x401a28 1 0.02
0x401a30 2 0.03
0x401a38 2 0.03
0x401a40 2 0.03
0x401a48 2 0.03
0x401a50 2 0.03
0x401a58 2 0.03
0x401a60 2 0.03
0x401a68 2 0.03
0x401a70 1 0.02
0x401a78 1 0.02
0x401a80 1 0.02
0x401a88 1 0.02
0x401a90 1 0.02
0x401a98 1 0.02
0x401aa0 1 0.02
0x401aa8 1 0.02
0x401ab0 1 0.02
0x401ab8 1 0.02
0x401ac0 1 0.02
0x401ac8 1 0.02
0x401ad0 1 0.02
0x401ad8 1 0.02
0x401ae0 1 0.02
0x401ae8 1 0.02
0x401af0 1 0.02
0x401af8 1 0.02
0x401b38 1 0.02
0x401b40 1 0.02
0x401b48 1 0.02
0x401b50 3 0.05
0x401b58 3 0.05
0x401b60 3 0.05
0x401b68 3 0.05
0x401b70 3 0.05
0x401b78 3 0.05
0x401b80 3 0.05
0x401b88 3 0.05
0x401b90 3 0.05
0x401b98 3 0.05
0x401ba0 4 0.06
0x401ba8 4 0.06
0x401bb0 4 0.06
0x401bb8 4 0.06
0x401bc0 4 0.06
0x401bc8 4 0.06
0x401bd0 4 0.06
0x401bd8 4 0.06
0x401be0 4 0.06
0x401be8 4 0.06
0x401c18 4 0.06
0x401c20 4 0.06
0x401c28 4 0.06
0x401c30 390 5.88
0x401c38 390 5.88
0x401c40 390 5.88
0x401c48 390 5.88
0x401c50 390 5.88
0x401c58 390 5.88
0x401c60 390 5.88
0x401c68 390 5.88
0x401c70 390 5.88
0x401c78 390 5.88
0x401c80 390 5.88
0x401c88 390 5.88
0x401c90 4 0.06
0x401c98 4 0.06
0x401ca0 4 0.06
0x401ca8 12 0.18
0x401cb0 12 0.18
0x401cb8 12 0.18
0x401cc0 12 0.18
0x401cc8 4 0.06
0x401cd0 4 0.06
0x401cf8 4 0.06
0x401d00 4 0.06
0x401ed0 1 0.02
0x401ed8 1 0.02
0x401ee0 1 0.02
0x401ee8 1 0.02
0x401ef0 1 0.02
0x401ef8 1 0.02
0x401f00 1 0.02
0x401f08 1 0.02
0x401f10 1 0.02
0x401f18 1 0.02
0x401f28 1 0.02
0x401f30 1 0.02
0x401f38 1 0.02
0x401f40 1 0.02
0x401f48 1 0.02
0x401f50 1 0.02
0x401f58 1 0.02
0x401f60 1 0.02
0x401f68 1 0.02
0x401f70 1 0.02
0x401f78 1 0.02
0x401f80 1 0.02
0x401f88 1 0.02
0x401f90 1 0.02
0x401f98 1 0.02
0x401fa0 1 0.02
0x401fa8 1 0.02
0x401fb0 1 0.02
0x401fb8 1 0.02
0x401fc0 1 0.02
0x401fc8 1 0.02
0x401fd0 1 0.02
0x401fd8 1 0.02
0x401fe0 1 0.02
0x401fe8 1 0.02
0x402038 1 0.02
0x402040 1 0.02
0x402048 1 0.02
0x402050 1 0.02
0x402058 1 0.02
0x402060 1 0.02
0x402068 1 0.02
0x402080 1 0.02
0x402088 1 0.02
0x402090 1 0.02
0x402098 1 0.02
0x4020a0 1 0.02
0x4020a8 1 0.02
0x4020b0 1 0.02
0x4020b8 1 0.02
0x4020c0 1 0.02
0x4020c8 1 0.02
0x4020d0 1 0.02
0x4020d8 1 0.02
0x4020e0 1 0.02
0x402130 1 0.02
0x402138 1 0.02
0x402140 1 0.02
0x402148 1 0.02
0x402150 1 0.02
0x402158 1 0.02
0x402160 1 0.02
0x402168 1 0.02
0x402170 1 0.02
0x402178 1 0.02
0x402180 1 0.02
0x402188 1 0.02
0x402190 1 0.02
0x402198 1 0.02
0x4021a0 1 0.02
0x4021a8 1 0.02
0x4021b0 1 0.02
0x4021b8 1 0.02
0x4021c0 1 0.02
0x4021c8 1 0.02
0x4021d0 1 0.02
0x4021d8 1 0.02
0x4021e0 1 0.02
0x4021e8 1 0.02
0x4021f0 1 0.02
0x4021f8 1 0.02
0x402200 1 0.02
0x402208 1 0.02
0x4022c0 1 0.02
0x4022c8 1 0.02
0x4022d0 1 0.02
0x4022d8 1 0.02
0x4022e0 1 0.02
0x402430 1 0.02
0x402438 1 0.02
0x402748 1 0.02
0x402750 1 0.02
0x402758 1 0.02
0x402760 1 0.02
0x402768 1 0.02
0x402770 1 0.02
0x402778 1 0.02
0x402780 1 0.02
0x402788 1 0.02
0x402790 1 0.02
0x402798 1 0.02
0x4027a0 1 0.02
0x4027c8 1 0.02
0x4027d0 1 0.02
0x402800 1 0.02
0x402808 1 0.02
0x402810 1 0.02
0x402818 1 0.02
0x402c48 2 0.03
0x402c50 2 0.03
0x402c58 2 0.03
0x402c60 2 0.03
0x402c68 2 0.03
0x402c70 2 0.03
0x402c78 2 0.03
0x402c80 2 0.03
0x402c88 2 0.03
0x402c90 2 0.03
0x402c98 2 0.03
0x402ca0 2 0.03
0x402ca8 2 0.03
0x402cb0 2 0.03
0x402cb8 2 0.03
0x402cc0 2 0.03
0x402cc8 2 0.03
0x402cd0 2 0.03
0x402cd8 2 0.03
0x402ce0 2 0.03
0x402ce8 2 0.03
0x402cf0 2 0.03
0x402cf8 2 0.03
0x402d00 2 0.03
0x402d08 2 0.03
0x402d10 2 0.03
0x402d18 2 0.03
0x402d20 2 0.03
0x402ed8 2 0.03
0x402ee0 2 0.03
0x402ee8 1 0.02
0x402ef0 1 0.02
0x402ef8 1 0.02
0x402f00 1 0.02
0x402f08 1 0.02
0x402f10 1 0.02
0x402f18 1 0.02
0x402f80 2 0.03
0x402f88 2 0.03
0x402f90 2 0.03
0x402f98 2 0.03
0x402fd0 2 0.03
0x402fd8 2 0.03
0x402fe0 2 0.03
0x402fe8 2 0.03
0x402ff0 2 0.03
0x402ff8 2 0.03
0x403000 2 0.03
0x403008 2 0.03
0x403010 2 0.03
0x403018 2 0.03
0x403020 2 0.03
0x403320 2 0.03
0x403328 2 0.03
0x403330 2 0.03
0x403338 2 0.03
0x403340 2 0.03
0x403348 2 0.03
0x403350 2 0.03
0x403358 2 0.03
0x403360 2 0.03
0x403378 2 0.03
0x403380 2 0.03
0x403388 2 0.03
0x403390 2 0.03
0x403398 2 0.03
0x4033a0 2 0.03
0x4033a8 2 0.03
0x4033b0 2 0.03
0x4033b8 2 0.03
0x4033c0 2 0.03
0x4033c8 2 0.03
0x403860 2 0.03
0x403868 2 0.03
0x403870 2 0.03
0x403878 2 0.03
0x403880 2 0.03
0x403888 2 0.03
0x403890 2 0.03
0x403898 2 0.03
0x4038a0 2 0.03
0x4038a8 2 0.03
0x4038b0 2 0.03
0x4038b8 2 0.03
0x4038c0 2 0.03
0x4038c8 2 0.03
0x4038d0 2 0.03
0x4038e8 2 0.03
0x4038f0 2 0.03
0x4038f8 2 0.03
0x403900 2 0.03
0x403908 2 0.03
0x403910 2 0.03
0x403918 2 0.03
0x403940 2 0.03
0x403948 2 0.03
0x403950 2 0.03
0x403958 2 0.03
0x403960 2 0.03
0x403998 2 0.03
0x4039a0 2 0.03
0x4039a8 2 0.03
0x4039b0 2 0.03
0x4039b8 2 0.03
0x4039c0 2 0.03
0x4039c8 2 0.03
0x4039d0 2 0.03
0x4039d8 2 0.03
0x4039e0 2 0.03
0x4039e8 2 0.03
0x4039f0 2 0.03
0x4039f8 2 0.03
0x403a00 2 0.03
0x403a08 2 0.03
0x403a10 2 0.03
0x403a18 2 0.03
0x403a20 2 0.03
0x403a28 2 0.03
0x403a30 2 0.03
0x403a38 2 0.03
0x403a40 2 0.03
0x403a48 2 0.03
0x403a50 2 0.03
0x403a58 2 0.03
0x403a60 2 0.03
0x403a68 2 0.03
0x403a70 2 0.03
0x403a78 2 0.03
0x403a80 2 0.03
0x403a88 1 0.02
0x403a90 1 0.02
0x403aa8 1 0.02
0x403ab0 1 0.02
0x403ab8 1 0.02
0x403ac0 1 0.02
0x403ac8 1 0.02
0x403ad0 1 0.02
0x403ad8 1 0.02
0x403b10 1 0.02
0x403b18 1 0.02
0x403b20 1 0.02
0x403b48 2 0.03
0x403b50 2 0.03
0x403b58 2 0.03
0x403b60 2 0.03
0x403b68 2 0.03
0x403b70 2 0.03
0x403b78 2 0.03
0x403b80 2 0.03
0x403b88 2 0.03
0x403bb8 2 0.03
0x403c80 2 0.03
0x403c88 2 0.03
0x403c90 2 0.03
0x403cb8 2 0.03
0x403cc0 2 0.03
0x403cd0 2 0.03
0x403cd8 2 0.03
0x403ce0 2 0.03
0x403ce8 2 0.03
0x403cf0 2 0.03
0x403cf8 2 0.03
0x403d28 2 0.03
0x403d30 2 0.03
0x403d38 2 0.03
0x403d40 2 0.03
0x403d58 2 0.03
0x403d60 2 0.03
0x403d68 2 0.03
0x403d70 2 0.03
0x403d78 2 0.03
0x403d80 2 0.03
0x403d88 2 0.03
0x403d90 2 0.03
0x404328 3 0.05
0x404330 3 0.05
0x404338 3 0.05
0x404340 3 0.05
0x404348 3 0.05
0x404350 3 0.05
0x404358 3 0.05
0x404360 3 0.05
0x404368 3 0.05
0x404370 3 0.05
0x404378 3 0.05
0x404380 3 0.05
0x404388 3 0.05
0x404390 3 0.05
0x404398 3 0.05
0x404540 2 0.03
0x404548 2 0.03
0x404550 2 0.03
0x404558 2 0.03
0x404560 2 0.03
0x404568 2 0.03
0x4049e0 3 0.05
0x4049e8 3 0.05
0x4049f0 3 0.05
0x4049f8 3 0.05
0x404a10 3 0.05
0x404a18 3 0.05
0x404a20 3 0.05
0x404a28 3 0.05
0x404a30 3 0.05
0x404a38 3 0.05
0x404a40 3 0.05
0x404a48 3 0.05
0x404a50 3 0.05
0x404a58 3 0.05
0x404a60 3 0.05
0x4052c0 2 0.03
0x4052c8 2 0.03
0x4052d0 2 0.03
0x4052d8 2 0.03
0x4052e0 2 0.03
0x4052e8 2 0.03
0x4052f0 2 0.03
0x4052f8 2 0.03
0x405300 2 0.03
0x405308 2 0.03
0x405310 2 0.03
0x405318 1 0.02
0x405320 1 0.02
0x405328 1 0.02
0x405330 1 0.02
0x405338 1 0.02
0x405340 1 0.02
0x405348 1 0.02
0x405350 1 0.02
0x405378 1 0.02
0x405380 1 0.02
0x4053c0 1 0.02
0x4053c8 1 0.02
0x4053d0 2 0.03
0x4053d8 2 0.03
0x4053e0 2 0.03
0x4053e8 2 0.03
0x4053f0 2 0.03
0x4054d0 2 0.03
0x4054d8 2 0.03
0x4054e0 2 0.03
0x4054e8 2 0.03
0x4054f0 2 0.03
0x405580 3 0.05
0x405588 3 0.05
0x405590 3 0.05
0x4055a0 3 0.05
0x4055a8 3 0.05
0x4055b0 3 0.05
0x4055b8 3 0.05
0x4055c0 3 0.05
0x4055c8 3 0.05
0x4055f0 1 0.02
0x4055f8 1 0.02
0x405600 1 0.02
0x405608 1 0.02
0x405610 1 0.02
sim_num_insn_by_pc.end_dist

ld_text_base             0x00400000 # program text (code) segment base
ld_text_size                  22352 # program text (code) size in bytes
ld_data_base             0x10000000 # program initialized data segment base
ld_data_size                   4096 # program init'ed `.data' and uninit'ed `.bss' size in bytes
ld_stack_base            0x7fffc000 # program stack segment base (highest address in stack)
ld_stack_size                 16384 # program initial stack size
ld_prog_entry            0x00400140 # program entry point (initial PC)
ld_environ_base          0x7fff8000 # program environment base address address
ld_target_big_endian              0 # target executable endian-ness, non-zero if big endian
mem.page_count                   12 # total number of pages allocated
mem.page_mem                    48k # total size of memory pages allocated
mem.ptab_misses                  12 # total first level page table misses
mem.ptab_accesses            175796 # total page table accesses
mem.ptab_miss_rate           0.0001 # first level page table miss rate

+--------------------------------------------------------------+
| effective code range:         [0, fffffff8]                  |
| effective bpred count:        0                              |
| effective sim cycles:         0                              |
| effective bpred misses:       0                              |
| effective icache misses:      0                              |
+--------------------------------------------------------------+

